row=8;
column=8;
Board=[|-1,-1,-1,-1,-1,-1,2,3|-1,-1,-1,-1,-1,-1,-1,1|-1,-1,-1,3,-1,-1,-1,-1|-1,-1,1,1,-1,-1,-1,-1|3,-1,-1,-1,-1,-1,-1,-1|-1,-1,-1,-1,-1,-1,-1,-1|2,-1,-1,-1,-1,-1,0,1|2,0,1,-1,1,1,-1,1|];
